
Gurobi 11.0.1 (win64) logging started Thu Mar 14 08:04:35 2024

Set parameter LogFile to value "C:\Projetos\Job_Rotation_Algorithms\Outputs\GurobiLogs\gurobi_log-output-11_wee-c36-BorbaRittModel-NoExtraConstraint-2.log"
Gurobi Optimizer version 11.0.1 build v11.0.1rc0 (win64 - Windows 10.0 (19045.2))

CPU model: 11th Gen Intel(R) Core(TM) i7-1165G7 @ 2.80GHz, instruction set [SSE2|AVX|AVX2|AVX512]
Thread count: 4 physical cores, 8 logical processors, using up to 1 threads


Gurobi 11.0.1 (win64) logging started Fri Mar 15 00:41:59 2024

Set parameter LogFile to value "C:\Projetos\Job_Rotation_Algorithms\Outputs\GurobiLogs\gurobi_log-output-11_wee-c36-BorbaRittModel-NoExtraConstraint-2.log"
Gurobi Optimizer version 11.0.1 build v11.0.1rc0 (win64 - Windows 10.0 (19045.2))

CPU model: 11th Gen Intel(R) Core(TM) i7-1165G7 @ 2.80GHz, instruction set [SSE2|AVX|AVX2|AVX512]
Thread count: 4 physical cores, 8 logical processors, using up to 1 threads


Gurobi 11.0.1 (win64) logging started Tue Mar 19 09:18:21 2024

Set parameter LogFile to value "C:\Projetos\Job_Rotation_Algorithms\Outputs\GurobiLogs\gurobi_log-output-11_wee-c36-BorbaRittModel-NoExtraConstraint-2.log"
Gurobi Optimizer version 11.0.1 build v11.0.1rc0 (win64 - Windows 10.0 (19045.2))

CPU model: 11th Gen Intel(R) Core(TM) i7-1165G7 @ 2.80GHz, instruction set [SSE2|AVX|AVX2|AVX512]
Thread count: 4 physical cores, 8 logical processors, using up to 1 threads


Gurobi 11.0.1 (win64) logging started Mon Apr  1 12:44:16 2024

Set parameter LogFile to value "C:\Projetos\Job_Rotation_Algorithms\Outputs\GurobiLogs\gurobi_log-output-11_wee-c36-BorbaRittModel-NoExtraConstraint-2.log"
Gurobi Optimizer version 11.0.1 build v11.0.1rc0 (win64 - Windows 10.0 (19045.2))

CPU model: 11th Gen Intel(R) Core(TM) i7-1165G7 @ 2.80GHz, instruction set [SSE2|AVX|AVX2|AVX512]
Thread count: 4 physical cores, 8 logical processors, using up to 1 threads


Gurobi 11.0.1 (win64) logging started Mon Apr  1 21:32:11 2024

Set parameter LogFile to value "C:\Projetos\Job_Rotation_Algorithms\Outputs\GurobiLogs\gurobi_log-output-11_wee-c36-BorbaRittModel-NoExtraConstraint-2.log"
Gurobi Optimizer version 11.0.1 build v11.0.1rc0 (win64 - Windows 10.0 (19045.2))

CPU model: 11th Gen Intel(R) Core(TM) i7-1165G7 @ 2.80GHz, instruction set [SSE2|AVX|AVX2|AVX512]
Thread count: 4 physical cores, 8 logical processors, using up to 1 threads


Gurobi 11.0.1 (win64) logging started Thu Apr  4 23:30:03 2024

Set parameter LogFile to value "C:\Projetos\Job_Rotation_Algorithms\Outputs\GurobiLogs\gurobi_log-output-11_wee-c36-BorbaRittModel-NoExtraConstraint-2.log"
Gurobi Optimizer version 11.0.1 build v11.0.1rc0 (win64 - Windows 10.0 (19045.2))

CPU model: 11th Gen Intel(R) Core(TM) i7-1165G7 @ 2.80GHz, instruction set [SSE2|AVX|AVX2|AVX512]
Thread count: 4 physical cores, 8 logical processors, using up to 1 threads


Gurobi 11.0.1 (win64) logging started Sat Apr  6 12:58:57 2024

Set parameter LogFile to value "C:\Projetos\Job_Rotation_Algorithms\Outputs\GurobiLogs\gurobi_log-output-11_wee-c36-BorbaRittModel-NoExtraConstraint-2.log"
Gurobi Optimizer version 11.0.1 build v11.0.1rc0 (win64 - Windows 10.0 (19045.2))

CPU model: 11th Gen Intel(R) Core(TM) i7-1165G7 @ 2.80GHz, instruction set [SSE2|AVX|AVX2|AVX512]
Thread count: 4 physical cores, 8 logical processors, using up to 1 threads


Gurobi 11.0.1 (win64) logging started Sun Apr  7 02:32:32 2024

Set parameter LogFile to value "C:\Projetos\Job_Rotation_Algorithms\Outputs\GurobiLogs\gurobi_log-output-11_wee-c36-BorbaRittModel-NoExtraConstraint-2.log"
Gurobi Optimizer version 11.0.1 build v11.0.1rc0 (win64 - Windows 10.0 (19045.2))

CPU model: 11th Gen Intel(R) Core(TM) i7-1165G7 @ 2.80GHz, instruction set [SSE2|AVX|AVX2|AVX512]
Thread count: 4 physical cores, 8 logical processors, using up to 1 threads


Gurobi 11.0.1 (win64) logging started Sun Apr  7 09:45:25 2024

Set parameter LogFile to value "C:\Projetos\Job_Rotation_Algorithms\Outputs\GurobiLogs\gurobi_log-output-11_wee-c36-BorbaRittModel-NoExtraConstraint-2.log"
Gurobi Optimizer version 11.0.1 build v11.0.1rc0 (win64 - Windows 10.0 (19045.2))

CPU model: 11th Gen Intel(R) Core(TM) i7-1165G7 @ 2.80GHz, instruction set [SSE2|AVX|AVX2|AVX512]
Thread count: 4 physical cores, 8 logical processors, using up to 1 threads


Gurobi 11.0.1 (win64) logging started Tue Apr  9 08:03:46 2024

Set parameter LogFile to value "C:\Projetos\Job_Rotation_Algorithms\Outputs\GurobiLogs\gurobi_log-output-11_wee-c36-BorbaRittModel-NoExtraConstraint-2.log"
Gurobi Optimizer version 11.0.1 build v11.0.1rc0 (win64 - Windows 10.0 (19045.2))

CPU model: 11th Gen Intel(R) Core(TM) i7-1165G7 @ 2.80GHz, instruction set [SSE2|AVX|AVX2|AVX512]
Thread count: 4 physical cores, 8 logical processors, using up to 1 threads


Gurobi 11.0.1 (win64) logging started Wed Apr 10 17:32:54 2024

Set parameter LogFile to value "C:\Projetos\Job_Rotation_Algorithms\Outputs\GurobiLogs\gurobi_log-output-11_wee-c36-BorbaRittModel-NoExtraConstraint-2.log"
Gurobi Optimizer version 11.0.1 build v11.0.1rc0 (win64 - Windows 10.0 (19045.2))

CPU model: 11th Gen Intel(R) Core(TM) i7-1165G7 @ 2.80GHz, instruction set [SSE2|AVX|AVX2|AVX512]
Thread count: 4 physical cores, 8 logical processors, using up to 1 threads


Gurobi 11.0.1 (win64) logging started Thu Apr 11 01:38:46 2024

Set parameter LogFile to value "C:\Projetos\Job_Rotation_Algorithms\Outputs\GurobiLogs\gurobi_log-output-11_wee-c36-BorbaRittModel-NoExtraConstraint-2.log"
Gurobi Optimizer version 11.0.1 build v11.0.1rc0 (win64 - Windows 10.0 (19045.2))

CPU model: 11th Gen Intel(R) Core(TM) i7-1165G7 @ 2.80GHz, instruction set [SSE2|AVX|AVX2|AVX512]
Thread count: 4 physical cores, 8 logical processors, using up to 1 threads


Gurobi 11.0.1 (win64) logging started Mon Apr 15 13:37:53 2024

Set parameter LogFile to value "C:\Projetos\Job_Rotation_Algorithms\Outputs\GurobiLogs\gurobi_log-output-11_wee-c36-BorbaRittModel-NoExtraConstraint-2.log"
Gurobi Optimizer version 11.0.1 build v11.0.1rc0 (win64 - Windows 10.0 (19045.2))

CPU model: 11th Gen Intel(R) Core(TM) i7-1165G7 @ 2.80GHz, instruction set [SSE2|AVX|AVX2|AVX512]
Thread count: 4 physical cores, 8 logical processors, using up to 1 threads

WLS license 901038 - registered to Bitka Analytics
Optimize a model with 13918 rows, 2133 columns and 43697 nonzeros
Model fingerprint: 0x5b1a7b96
Variable types: 2 continuous, 2131 integer (2131 binary)
Coefficient statistics:
  Matrix range     [1e+00, 3e+01]
  Objective range  [1e+00, 1e+00]
  Bounds range     [1e+00, 7e+01]
  RHS range        [1e+00, 7e+01]
Presolve removed 1 rows and 1 columns
Presolve time: 0.07s
Presolved: 13917 rows, 2132 columns, 43695 nonzeros
Variable types: 0 continuous, 2132 integer (2131 binary)
Root relaxation presolved: 13917 rows, 2132 columns, 43695 nonzeros


Root relaxation: objective 1.500000e+02, 3934 iterations, 0.77 seconds (0.74 work units)

    Nodes    |    Current Node    |     Objective Bounds      |     Work
 Expl Unexpl |  Obj  Depth IntInf | Incumbent    BestBd   Gap | It/Node Time

     0     0  150.00000    0  230          -  150.00000      -     -    1s
     0     0  150.00000    0  424          -  150.00000      -     -    1s
     0     0  150.00000    0  417          -  150.00000      -     -    2s
     0     0  150.00000    0  224          -  150.00000      -     -    3s
     0     0  150.00000    0  225          -  150.00000      -     -    3s
     0     0  150.00000    0  268          -  150.00000      -     -    5s
     0     0  150.00000    0  327          -  150.00000      -     -    5s
     0     0  150.00000    0  423          -  150.00000      -     -    6s
     0     0  150.00000    0  354          -  150.00000      -     -    6s
     0     0  150.00000    0  244          -  150.00000      -     -    7s
     0     0  150.00000    0  246          -  150.00000      -     -    7s
     0     0  150.00000    0  174          -  150.00000      -     -    8s
     0     0  150.00000    0  276          -  150.00000      -     -    8s
     0     0  150.00000    0  317          -  150.00000      -     -    9s
     0     0  150.00000    0  216          -  150.00000      -     -    9s
     0     2  150.00000    0  216          -  150.00000      -     -   12s
    68    57  150.00000   11  226          -  150.00000      -   180   15s
   169   142  149.94411   74  410          -  150.00000      -   188   20s
   331   274  150.00000   86  489          -  150.00000      -   148   25s
   447   368  150.00000  102  334          -  150.00000      -   160   30s
   570   477  150.00000   65  318          -  150.00000      -   159   37s
   573   479  150.00000   97  391          -  150.00000      -   158   41s
   577   482  150.00000   41  341          -  150.00000      -   157   46s
   583   486  150.00000   81  287          -  150.00000      -   155   51s
   587   489  150.00000   68  361          -  150.00000      -   154   55s
   593   493  150.00000   29  151          -  150.00000      -   153   62s
   612   507  150.00000   25  271          -  150.00000      -   133   66s
   652   532  150.00000   45  252          -  150.00000      -   143   70s
   714   573  150.00000   76  212          -  150.00000      -   155   75s
   744   585  150.00000   91  273          -  150.00000      -   155   80s
   841   634  150.00000   54  200          -  150.00000      -   155   85s
   923   683  150.00000   95  224          -  150.00000      -   164   90s
  1021   734  150.00000   48  242          -  150.00000      -   165   95s
  1116   791 infeasible   95               -  150.00000      -   169  100s
  1219   840  150.00000   58  271          -  150.00000      -   170  105s
  1318   884 infeasible  103               -  150.00000      -   176  110s
  1426   954  150.00000   73  308          -  150.00000      -   173  115s
  1503   983  150.00000   25  238          -  150.00000      -   181  120s
  1624  1064  150.00000   85  324          -  150.00000      -   184  125s
  1706  1109  150.00000  124  370          -  150.00000      -   188  130s
  1717  1110  150.00000  130  332          -  150.00000      -   192  139s
  1725  1113 infeasible  134               -  150.00000      -   192  140s
  1823  1161  150.00000   63  211          -  150.00000      -   197  145s
  1932  1215  150.00000  118  303          -  150.00000      -   200  150s
  2085  1300  150.00000   85  255          -  150.00000      -   203  155s
  2133  1342  149.56654  109  409          -  150.00000      -   211  160s
  2265  1456  150.00000   73  256          -  150.00000      -   213  165s
  2437  1586  150.00000   71  260          -  150.00000      -   213  170s
  2594  1703  150.00000   39  232          -  150.00000      -   215  175s
  2697  1806  150.00000  101  379          -  150.00000      -   219  180s
  2733  1838  150.00000  115  387          -  150.00000      -   226  185s
  2766  1849 infeasible  124               -  150.00000      -   232  190s
  2922  1997 infeasible  105               -  150.00000      -   230  195s
  2993  2052 infeasible  127               -  150.00000      -   232  200s
  3115  2152  150.00000   76  276          -  150.00000      -   234  205s
  3207  2236 infeasible  117               -  150.00000      -   236  210s
  3305  2314  150.00000   71  250          -  150.00000      -   238  215s
  3376  2383  150.00000  106  317          -  150.00000      -   241  220s
  3427  2428  150.00000  123  406          -  150.00000      -   244  225s
  3479  2464  150.00000   36  130          -  150.00000      -   248  230s
  3618  2603  150.00000  107  317          -  150.00000      -   246  235s
  3650  2631 infeasible  115               -  150.00000      -   252  240s
  3768  2737  150.00000   85  211          -  150.00000      -   254  245s
  3808  2777  150.00000   99  313          -  150.00000      -   255  252s
  3844  2809 infeasible  115               -  150.00000      -   257  255s
  3934  2885  150.00000   72  257          -  150.00000      -   260  260s
  4052  2995  150.00000  132  337          -  150.00000      -   263  265s
  4180  3091  150.00000   95  213          -  150.00000      -   265  270s
  4222  3125  150.00000  115  341          -  150.00000      -   270  275s
  4324  3205  150.00000   78  257          -  150.00000      -   272  280s
  4390  3261  150.00000  108  347          -  150.00000      -   277  285s
  4458  3299  150.00000   50  321          -  150.00000      -   278  290s
  4592  3421 infeasible  115               -  150.00000      -   280  295s
  4628  3429 infeasible  125               -  150.00000      -   285  300s
  4719  3504  150.00000   85  329          -  150.00000      -   287  305s
  4821  3582  150.00000   67  267          -  150.00000      -   288  310s
  4930  3685 infeasible  121               -  150.00000      -   289  315s
  4969  3702  150.00000   40  236          -  150.00000      -   292  320s
  5090  3811 infeasible  110               -  150.00000      -   292  325s
  5258  3951  150.00000  116  323          -  150.00000      -   290  330s
  5363  4034  150.00000   82  258          -  150.00000      -   291  335s
  5507  4154 infeasible   95               -  150.00000      -   291  340s
  5636  4277  150.00000  103  320          -  150.00000      -   290  345s
  5679  4312 infeasible  119               -  150.00000      -   293  350s
  5791  4402  150.00000  102  279          -  150.00000      -   294  355s
  5843  4436  150.00000   48  142          -  150.00000      -   295  361s
  5969  4552  150.00000  115  222          -  150.00000      -   294  365s
  6114  4673 infeasible   91               -  150.00000      -   295  370s
  6194  4725 infeasible  117               -  150.00000      -   297  375s
  6315  4808 infeasible   94               -  150.00000      -   297  380s
  6416  4887  150.00000  141  317          -  150.00000      -   298  385s
  6533  4978  150.00000   99  323          -  150.00000      -   299  390s
  6542  4987  150.00000  100  333          -  150.00000      -   299  396s
  6576  5009  150.00000  112  329          -  150.00000      -   301  400s
  6718  5123 infeasible  113               -  150.00000      -   302  405s
  6800  5193  150.00000  144  392          -  150.00000      -   304  410s
  7001  5372  150.00000   93  231          -  150.00000      -   303  415s
  7133  5482  150.00000   85  308          -  150.00000      -   303  420s
  7285  5580  150.00000  102  289          -  150.00000      -   303  425s
  7384  5643  150.00000   82  284          -  150.00000      -   305  430s
  7567  5782 infeasible  143               -  150.00000      -   305  435s
  7713  5912  150.00000  125  284          -  150.00000      -   305  440s
  7897  6072  150.00000  142  206          -  150.00000      -   304  445s
  7998  6135  150.00000   79  287          -  150.00000      -   305  450s
  8080  6201 infeasible  116               -  150.00000      -   306  455s
  8138  6249  150.00000   85  284          -  150.00000      -   308  460s
  8208  6299  150.00000   61  207          -  150.00000      -   309  465s
  8316  6399  150.00000  107  315          -  150.00000      -   309  470s
  8411  6466  150.00000   90  316          -  150.00000      -   310  475s
  8527  6560  150.00000  101  320          -  150.00000      -   310  480s
  8608  6629  150.00000  131  328          -  150.00000      -   311  485s
  8637  6634 infeasible  141               -  150.00000      -   313  490s
  8776  6735  150.00000   72  263          -  150.00000      -   312  495s
  8883  6832  150.00000  123  316          -  150.00000      -   313  500s
  8924  6863  150.00000  137  357          -  150.00000      -   314  505s
  9031  6954  150.00000  114  311          -  150.00000      -   315  514s
  9037  6954  150.00000  115  223          -  150.00000      -   315  515s
  9174  7073  150.00000  121  282          -  150.00000      -   316  520s
  9236  7117 infeasible  140               -  150.00000      -   318  525s
  9398  7251  150.00000  102  311          -  150.00000      -   317  530s
  9477  7314  150.00000  140  227          -  150.00000      -   320  535s
  9605  7406 infeasible  105               -  150.00000      -   321  540s
  9770  7517  150.00000   80  290          -  150.00000      -   320  545s
  9912  7633  150.00000  108  229          -  150.00000      -   320  550s
 10057  7736  150.00000   89  210          -  150.00000      -   320  555s
 10202  7851  150.00000  136  306          -  150.00000      -   321  661s
 10323  7952  150.00000  125  271          -  150.00000      -   321  665s
 10473  8036  150.00000   93  304          -  150.00000      -   321  670s
 10679  8212  150.00000  140  307          -  150.00000      -   320  675s
 10763  8266  150.00000  118  369          -  150.00000      -   321  680s
 10859  8344  150.00000  155  284          -  150.00000      -   322  685s
 10900  8363  150.00000  106  221          -  150.00000      -   323  693s
 10954  8403 infeasible  129               -  150.00000      -   323  695s
 11073  8510  150.00000  122  306          -  150.00000      -   323  700s
 11145  8572  150.00000  144  325          -  150.00000      -   324  705s
 11175  8584 infeasible  149               -  150.00000      -   326  710s
 11312  8691  150.00000  123  295          -  150.00000      -   325  715s
 11397  8744 infeasible  127               -  150.00000      -   326  720s
 11497  8796  150.00000  103  209          -  150.00000      -   327  725s
 11582  8863 infeasible  145               -  150.00000      -   327  730s
 11666  8921  150.00000  103  222          -  150.00000      -   328  735s
 11766  8999  150.00000  122  321          -  150.00000      -   329  740s
 11847  9062  150.00000  155  405          -  150.00000      -   330  745s
 11902  9105  150.00000  126  355          -  150.00000      -   330  750s
 11996  9177  150.00000  125  271          -  150.00000      -   330  755s
 12101  9246  150.00000  125  259          -  150.00000      -   331  760s
 12211  9330  150.00000  100  247          -  150.00000      -   331  765s
 12340  9417  150.00000  108  210          -  150.00000      -   331  774s
 12373  9448  150.00000  115  233          -  150.00000      -   331  775s
 12466  9497  150.00000  135  236          -  150.00000      -   332  780s
 12573  9580  150.00000  118  309          -  150.00000      -   333  785s
 12662  9625 infeasible  148               -  150.00000      -   334  790s
 12773  9722 infeasible  117               -  150.00000      -   334  795s
 12870  9787 infeasible  138               -  150.00000      -   335  800s
 12993  9874 infeasible  107               -  150.00000      -   336  805s
 13185 10014  150.00000   94  204          -  150.00000      -   335  810s
 13285 10084  150.00000  137  388          -  150.00000      -   336  815s
 13438 10195  150.00000  108  298          -  150.00000      -   336  820s
 13525 10266 infeasible  139               -  150.00000      -   337  825s
 13641 10344 infeasible  133               -  150.00000      -   338  830s
 13771 10442 infeasible  132               -  150.00000      -   339  835s
 13894 10549  150.00000  132  350          -  150.00000      -   339  840s
 13983 10618  150.00000  114  318          -  150.00000      -   339  848s
 13996 10623 infeasible  125               -  150.00000      -   340  850s
 14084 10699  150.00000  114  417          -  150.00000      -   341  855s
 14188 10771 infeasible   70               -  150.00000      -   341  860s
 14279 10860  150.00000  115  356          -  150.00000      -   342  865s
 14342 10911  150.00000  144  264          -  150.00000      -   343  870s
 14402 10939  150.00000   81  300          -  150.00000      -   344  875s
 14485 11014  150.00000  121  293          -  150.00000      -   344  880s
 14600 11087 infeasible  109               -  150.00000      -   344  885s
 14736 11217  150.00000  149  348          -  150.00000      -   344  890s
 14845 11308  150.00000  123  267          -  150.00000      -   344  895s
 14990 11437  150.00000  100  284          -  150.00000      -   343  900s
 15121 11536 infeasible  125               -  150.00000      -   343  905s
 15179 11572 infeasible  148               -  150.00000      -   344  910s
 15283 11670 infeasible  135               -  150.00000      -   345  915s
 15395 11738  150.00000   97  238          -  150.00000      -   345  920s
 15497 11796  150.00000   96  323          -  150.00000      -   345  925s
 15578 11857  150.00000  103  246          -  150.00000      -   345  930s
 15686 11937  150.00000  118  252          -  150.00000      -   345  935s
 15724 11971  150.00000  136  232          -  150.00000      -   345  943s
 15740 11979  150.00000  141  290          -  150.00000      -   346  945s
 15845 12050  150.00000  131  388          -  150.00000      -   346  950s
 15861 12052  150.00000  136  364          -  150.00000      -   348  955s
 15977 12152  150.00000  133  297          -  150.00000      -   348  960s
 16069 12200  150.00000  124  215          -  150.00000      -   349  965s
 16180 12283 infeasible  135               -  150.00000      -   350  970s
 16303 12364 infeasible  148               -  150.00000      -   350  975s
 16446 12457 infeasible  140               -  150.00000      -   350  980s
 16614 12587  150.00000  117  292          -  150.00000      -   350  985s
 16785 12708  150.00000  116  333          -  150.00000      -   350  990s
 16845 12734  150.00000  136  388          -  150.00000      -   352  995s
 16928 12797  150.00000  142  276          -  150.00000      -   352 1000s
 17010 12845  150.00000  128  331          -  150.00000      -   353 1005s
 17188 12957  150.00000  135  286          -  150.00000      -   353 1010s
 17317 13030  150.00000  126  222          -  150.00000      -   354 1015s
 17434 13103 infeasible  131               -  150.00000      -   354 1020s
 17572 13181  150.00000  115  218          -  150.00000      -   355 1025s
 17705 13268  150.00000  115  278          -  150.00000      -   355 1030s
 17877 13398  150.00000  130  214          -  150.00000      -   355 1035s
 18049 13488  150.00000  131  189          -  150.00000      -   355 1040s
 18146 13539 infeasible  136               -  150.00000      -   356 1045s
 18293 13636  150.00000  133  368          -  150.00000      -   356 1050s
H18392 13687                     138.0000000  150.00000  8.70%   356 1054s
H18392 13687                     144.0000000  150.00000  4.17%   356 1054s
 18404 13701  150.00000  129  268  144.00000  150.00000  4.17%   356 1055s
 18495 13741  150.00000  113  192  144.00000  150.00000  4.17%   357 1060s
H18574 13794                     145.0000000  150.00000  3.45%   357 1063s
 18617 13827  150.00000  142  265  145.00000  150.00000  3.45%   356 1065s
 18753 13953  150.00000  165  314  145.00000  150.00000  3.45%   355 1070s
H18860 14034                     146.0000000  150.00000  2.74%   355 1074s
 18862 14036 infeasible  125       146.00000  150.00000  2.74%   355 1075s
 18982 14132  150.00000  185  411  146.00000  150.00000  2.74%   355 1080s
H19072 14196                     147.0000000  150.00000  2.04%   354 1083s
 19086 14205  150.00000  175  337  147.00000  150.00000  2.04%   355 1085s
 19209 14298  150.00000  148  256  147.00000  150.00000  2.04%   354 1090s
H19237 14306                     148.0000000  150.00000  1.35%   354 1091s
H19254 14299                     149.0000000  150.00000  0.67%   354 1092s
 19259 14304  150.00000  113  241  149.00000  150.00000  0.67%   354 1096s
 19263 14307  150.00000   75  172  149.00000  150.00000  0.67%   353 1101s
 19267 14309  150.00000  103  128  149.00000  150.00000  0.67%   353 1105s
 19273 14313  150.00000  129  267  149.00000  150.00000  0.67%   353 1110s
 19280 14320  150.00000   28  165  149.00000  150.00000  0.67%   357 1115s
 19340 14360  150.00000   58  250  149.00000  150.00000  0.67%   356 1120s
 19401 14401  150.00000   88  261  149.00000  150.00000  0.67%   356 1125s
 19479 14451  150.00000  127  239  149.00000  150.00000  0.67%   355 1130s
 19564 14491  150.00000   61  198  149.00000  150.00000  0.67%   354 1135s
 19636 14527 infeasible   97       149.00000  150.00000  0.67%   353 1140s
 19721 14568  150.00000   58  136  149.00000  150.00000  0.67%   352 1145s
 19790 14614  150.00000   93  150  149.00000  150.00000  0.67%   351 1150s
 19846 14647  150.00000  121  213  149.00000  150.00000  0.67%   351 1155s
 19908 14671  150.00000   63  117  149.00000  150.00000  0.67%   350 1161s
H19935 13387                     150.0000000  150.00000  0.00%   350 1162s

Cutting planes:
  Cover: 1
  MIR: 5
  StrongCG: 1
  Flow cover: 2
  Zero half: 2
  RLT: 15
  BQP: 14

Explored 19936 nodes (7109156 simplex iterations) in 1162.95 seconds (1351.17 work units)
Thread count was 1 (of 8 available processors)

Solution count 8: 150 149 148 ... 138

Optimal solution found (tolerance 1.00e-03)
Best objective 1.500000000000e+02, best bound 1.500000000000e+02, gap 0.0000%
